c preprocessed version of SzekeresSnarkGraph, 50 vertices, 75 edges
p td 50 75
0 4
0 46
0 49
1 7
1 10
1 14
2 3
3 4
3 18
4 5
5 36
6 7
6 11
6 25
7 8
8 9
8 42
9 10
9 15
10 11
11 13
12 17
12 20
12 24
13 14
13 28
14 15
16 17
16 21
16 35
17 18
18 19
19 20
19 25
20 21
21 22
22 24
22 38
23 27
23 30
23 33
24 25
26 27
26 31
26 44
27 28
28 29
29 30
29 35
30 31
31 32
32 33
33 35
34 37
34 40
34 43
36 37
36 41
37 38
38 39
39 40
39 44
40 41
41 42
42 43
43 44
45 2
45 15
45 46
46 47
47 32
47 48
48 5
48 49
49 2
